7707 5730 5444
6151 6412 7211
5923 5842 7362
6665 7628 5297
7351 7044 4458
7157 5871 6430
7466 5971 5874
6233 6558 7119
6927 7289 5565
6468 6839 6847
7574 6210 5529
5919 6951 6799
6252 7287 6463
6730 6500 7115
7426 6951 4800
7280 6359 6129
6658 7224 6410
7514 6893 4206
5426 5900 7366
6838 6739 6770
5477 5274 7373
7606 6466 5160
7739 5986 5075
6845 6978 6336
6360 7526 6118
5971 6897 6851
5935 7617 5500
